(declare-const numOfDelta_8 Int ) 
(declare-const zUsedInTransq_4 Int ) 
(declare-const numOfDelta_11 Int ) 
(declare-const numberOfOccur_1 Int ) 
(declare-const numOfDelta_7 Int ) 
(declare-const numOfDelta_1 Int ) 
(declare-const numOfDelta_17 Int ) 
(declare-const numOfDelta_3 Int ) 
(declare-const zUsedInTransq_7 Int ) 
(declare-const numOfDelta_16 Int ) 
(declare-const zUsedInTransq_2 Int ) 
(declare-const numberOfOccur_2 Int ) 
(declare-const numOfDelta_5 Int ) 
(declare-const startWithq_6 Int ) 
(declare-const zUsedInTransq_3 Int ) 
(declare-const recognizeByq_7 Int ) 
(declare-const numOfDelta_9 Int ) 
(declare-const zUsedInTransq_1 Int ) 
(declare-const numOfDelta_0 Int ) 
(declare-const zUsedInTransq_6 Int ) 
(declare-const startWithq_0 Int ) 
(declare-const numOfDelta_15 Int ) 
(declare-const numberOfOccur_6 Int ) 
(declare-const numOfDelta_4 Int ) 
(declare-const numOfDelta_2 Int ) 
(declare-const lengthOfx_2 Int ) 
(declare-const diff_0 Int ) 
(declare-const numberOfOccur_0 Int ) 
(declare-const recognizeByq_6 Int ) 
(declare-const numberOfOccur_4 Int ) 
(declare-const startWithq_1 Int ) 
(declare-const recognizeByq_3 Int ) 
(declare-const lengthOfx_1 Int ) 
(declare-const numOfDelta_6 Int ) 
(declare-const startWithq_4 Int ) 
(declare-const zUsedInTransq_0 Int ) 
(declare-const startWithq_5 Int ) 
(declare-const numOfDelta_12 Int ) 
(declare-const numberOfOccur_7 Int ) 
(declare-const recognizeByq_0 Int ) 
(declare-const lengthOfx_0 Int ) 
(declare-const recognizeByq_1 Int ) 
(declare-const recognizeByq_2 Int ) 
(declare-const startWithq_2 Int ) 
(declare-const zUsedInTransq_5 Int ) 
(declare-const numOfDelta_13 Int ) 
(declare-const recognizeByq_5 Int ) 
(declare-const numberOfOccur_3 Int ) 
(declare-const startWithq_3 Int ) 
(declare-const numOfDelta_18 Int ) 
(declare-const recognizeByq_4 Int ) 
(declare-const numOfDelta_14 Int ) 
(declare-const numOfDelta_10 Int ) 
(declare-const startWithq_7 Int ) 
(declare-const numberOfOccur_5 Int ) 

(assert (and (and (and (and (and (and (and (= (+ (- (+ (+ (+ numOfDelta_13 numOfDelta_16) numOfDelta_4) numOfDelta_14) (+ (+ numOfDelta_16 numOfDelta_11) numOfDelta_14)) (- startWithq_6 recognizeByq_6)) 0) (= (+ (- (+ (+ (+ numOfDelta_0 numOfDelta_3) numOfDelta_11) numOfDelta_5) (+ (+ numOfDelta_3 numOfDelta_9) numOfDelta_5)) (- startWithq_1 recognizeByq_1)) 0)) (= (+ (- (+ (+ (+ numOfDelta_10 numOfDelta_15) numOfDelta_6) numOfDelta_17) (+ (+ numOfDelta_10 numOfDelta_17) numOfDelta_8)) (- startWithq_3 recognizeByq_3)) 0)) (= (+ (- numOfDelta_2 numOfDelta_18) (- startWithq_7 recognizeByq_7)) 0)) (= (+ (- 0 (+ (+ numOfDelta_0 numOfDelta_13) numOfDelta_4)) (- startWithq_5 recognizeByq_5)) 0)) (= (+ (- numOfDelta_18 0) (- startWithq_0 recognizeByq_0)) 0)) (= (+ (- numOfDelta_9 (+ (+ numOfDelta_12 numOfDelta_15) numOfDelta_6)) (- startWithq_2 recognizeByq_2)) 0)) (= (+ (- (+ (+ (+ numOfDelta_12 numOfDelta_7) numOfDelta_1) numOfDelta_8) (+ (+ numOfDelta_2 numOfDelta_7) numOfDelta_1)) (- startWithq_4 recognizeByq_4)) 0))) 
 
(assert (and (and (and (and (and (and (and (and (or (and (= numberOfOccur_2 0) (= zUsedInTransq_2 -1)) (and (< 0 numberOfOccur_2) (or (and (= zUsedInTransq_2 0) (= startWithq_2 1)) (and (and (= zUsedInTransq_2 (+ zUsedInTransq_1 1)) (< 0 numOfDelta_9)) (<= 0 zUsedInTransq_1))))) (or (and (= numberOfOccur_6 0) (= zUsedInTransq_6 -1)) (and (< 0 numberOfOccur_6) (or (and (= zUsedInTransq_6 0) (= startWithq_6 1)) (or (or (or (and (and (= zUsedInTransq_6 (+ zUsedInTransq_6 1)) (< 0 numOfDelta_16)) (<= 0 zUsedInTransq_6)) (and (and (= zUsedInTransq_6 (+ zUsedInTransq_5 1)) (< 0 numOfDelta_4)) (<= 0 zUsedInTransq_5))) (and (and (= zUsedInTransq_6 (+ zUsedInTransq_5 1)) (< 0 numOfDelta_13)) (<= 0 zUsedInTransq_5))) (and (and (= zUsedInTransq_6 (+ zUsedInTransq_6 1)) (< 0 numOfDelta_14)) (<= 0 zUsedInTransq_6))))))) (or (and (= numberOfOccur_7 0) (= zUsedInTransq_7 -1)) (and (< 0 numberOfOccur_7) (or (and (= zUsedInTransq_7 0) (= startWithq_7 1)) (and (and (= zUsedInTransq_7 (+ zUsedInTransq_4 1)) (< 0 numOfDelta_2)) (<= 0 zUsedInTransq_4)))))) (or (and (= numberOfOccur_3 0) (= zUsedInTransq_3 -1)) (and (< 0 numberOfOccur_3) (or (and (= zUsedInTransq_3 0) (= startWithq_3 1)) (or (or (or (and (and (= zUsedInTransq_3 (+ zUsedInTransq_2 1)) (< 0 numOfDelta_15)) (<= 0 zUsedInTransq_2)) (and (and (= zUsedInTransq_3 (+ zUsedInTransq_2 1)) (< 0 numOfDelta_6)) (<= 0 zUsedInTransq_2))) (and (and (= zUsedInTransq_3 (+ zUsedInTransq_3 1)) (< 0 numOfDelta_17)) (<= 0 zUsedInTransq_3))) (and (and (= zUsedInTransq_3 (+ zUsedInTransq_3 1)) (< 0 numOfDelta_10)) (<= 0 zUsedInTransq_3))))))) (or (and (= numberOfOccur_4 0) (= zUsedInTransq_4 -1)) (and (< 0 numberOfOccur_4) (or (and (= zUsedInTransq_4 0) (= startWithq_4 1)) (or (or (or (and (and (= zUsedInTransq_4 (+ zUsedInTransq_4 1)) (< 0 numOfDelta_1)) (<= 0 zUsedInTransq_4)) (and (and (= zUsedInTransq_4 (+ zUsedInTransq_4 1)) (< 0 numOfDelta_7)) (<= 0 zUsedInTransq_4))) (and (and (= zUsedInTransq_4 (+ zUsedInTransq_3 1)) (< 0 numOfDelta_8)) (<= 0 zUsedInTransq_3))) (and (and (= zUsedInTransq_4 (+ zUsedInTransq_2 1)) (< 0 numOfDelta_12)) (<= 0 zUsedInTransq_2))))))) (or (and (= numberOfOccur_1 0) (= zUsedInTransq_1 -1)) (and (< 0 numberOfOccur_1) (or (and (= zUsedInTransq_1 0) (= startWithq_1 1)) (or (or (or (and (and (= zUsedInTransq_1 (+ zUsedInTransq_5 1)) (< 0 numOfDelta_0)) (<= 0 zUsedInTransq_5)) (and (and (= zUsedInTransq_1 (+ zUsedInTransq_6 1)) (< 0 numOfDelta_11)) (<= 0 zUsedInTransq_6))) (and (and (= zUsedInTransq_1 (+ zUsedInTransq_1 1)) (< 0 numOfDelta_5)) (<= 0 zUsedInTransq_1))) (and (and (= zUsedInTransq_1 (+ zUsedInTransq_1 1)) (< 0 numOfDelta_3)) (<= 0 zUsedInTransq_1))))))) (or (and (= numberOfOccur_0 0) (= zUsedInTransq_0 -1)) (and (< 0 numberOfOccur_0) (or (and (= zUsedInTransq_0 0) (= startWithq_0 1)) (and (and (= zUsedInTransq_0 (+ zUsedInTransq_7 1)) (< 0 numOfDelta_18)) (<= 0 zUsedInTransq_7)))))) (or (and (= numberOfOccur_5 0) (= zUsedInTransq_5 -1)) (and (< 0 numberOfOccur_5) (or (and (= zUsedInTransq_5 0) (= startWithq_5 1)) true)))) (and (and (and (and (and (and (and (= numberOfOccur_3 (+ (+ (+ numOfDelta_10 numOfDelta_17) numOfDelta_8) recognizeByq_3)) (= numberOfOccur_1 (+ (+ (+ numOfDelta_3 numOfDelta_9) numOfDelta_5) recognizeByq_1))) (= numberOfOccur_2 (+ (+ (+ numOfDelta_12 numOfDelta_15) numOfDelta_6) recognizeByq_2))) (= numberOfOccur_4 (+ (+ (+ numOfDelta_2 numOfDelta_7) numOfDelta_1) recognizeByq_4))) (= numberOfOccur_0 (+ 0 recognizeByq_0))) (= numberOfOccur_7 (+ numOfDelta_18 recognizeByq_7))) (= numberOfOccur_5 (+ (+ (+ numOfDelta_0 numOfDelta_13) numOfDelta_4) recognizeByq_5))) (= numberOfOccur_6 (+ (+ (+ numOfDelta_16 numOfDelta_11) numOfDelta_14) recognizeByq_6))))) 
 
(assert (and (and (and (and (and (= lengthOfx_1 (+ (+ (+ (+ (+ (+ (+ (+ (+ (+ (+ (+ (+ (+ (+ (+ (+ (+ (* 1 numOfDelta_10) (* 0 numOfDelta_18)) (* 0 numOfDelta_0)) (* 1 numOfDelta_6)) (* 1 numOfDelta_15)) (* 0 numOfDelta_4)) (* 0 numOfDelta_9)) (* 0 numOfDelta_16)) (* 0 numOfDelta_13)) (* 0 numOfDelta_3)) (* 0 numOfDelta_2)) (* 1 numOfDelta_17)) (* 0 numOfDelta_11)) (* 0 numOfDelta_14)) (* 1 numOfDelta_1)) (* 1 numOfDelta_7)) (* 1 numOfDelta_8)) (* 0 numOfDelta_5)) (* 1 numOfDelta_12))) (= lengthOfx_0 (+ (+ (+ (+ (+ (+ (+ (+ (+ (+ (+ (+ (+ (+ (+ (+ (+ (+ (* 1 numOfDelta_4) (* 0 numOfDelta_18)) (* 0 numOfDelta_7)) (* 1 numOfDelta_16)) (* 1 numOfDelta_3)) (* 0 numOfDelta_6)) (* 0 numOfDelta_10)) (* 0 numOfDelta_9)) (* 1 numOfDelta_5)) (* 1 numOfDelta_11)) (* 1 numOfDelta_14)) (* 1 numOfDelta_0)) (* 1 numOfDelta_13)) (* 0 numOfDelta_2)) (* 0 numOfDelta_15)) (* 0 numOfDelta_12)) (* 0 numOfDelta_1)) (* 0 numOfDelta_17)) (* 0 numOfDelta_8)))) (= lengthOfx_2 (+ (+ (+ (+ (+ (+ (+ (+ (+ (+ (+ (+ (+ (+ (+ (+ (+ (+ (* 1 numOfDelta_4) (* 0 numOfDelta_18)) (* 0 numOfDelta_7)) (* 1 numOfDelta_16)) (* 1 numOfDelta_3)) (* 0 numOfDelta_6)) (* 0 numOfDelta_10)) (* 0 numOfDelta_9)) (* 1 numOfDelta_5)) (* 1 numOfDelta_11)) (* 1 numOfDelta_14)) (* 1 numOfDelta_0)) (* 1 numOfDelta_13)) (* 0 numOfDelta_2)) (* 0 numOfDelta_15)) (* 0 numOfDelta_12)) (* 0 numOfDelta_1)) (* 0 numOfDelta_17)) (* 0 numOfDelta_8)))) (and (= diff_0 0) (= diff_0 (+ (+ (+ (+ (+ (+ (+ (+ (+ (+ (+ (+ (+ (+ (+ (+ (+ (+ (* 1 numOfDelta_10) (* -1 numOfDelta_4)) (* 0 numOfDelta_18)) (* 1 numOfDelta_6)) (* 0 numOfDelta_7)) (* -1 numOfDelta_14)) (* 1 numOfDelta_15)) (* 0 numOfDelta_9)) (* -1 numOfDelta_13)) (* -1 numOfDelta_16)) (* 0 numOfDelta_3)) (* 0 numOfDelta_2)) (* 1 numOfDelta_17)) (* -1 numOfDelta_0)) (* -1 numOfDelta_11)) (* 0 numOfDelta_1)) (* 1 numOfDelta_8)) (* 0 numOfDelta_5)) (* 1 numOfDelta_12))))) (and (= lengthOfx_1 5) (= lengthOfx_1 lengthOfx_0))) (= lengthOfx_1 lengthOfx_2))) 
 
(assert (and (and (and (and (and (and (and (and (and (or (= startWithq_5 1) (= startWithq_5 0)) (= recognizeByq_5 0)) (and (= startWithq_1 0) (= recognizeByq_1 0))) (and (= startWithq_7 0) (= recognizeByq_7 0))) (and (= startWithq_4 0) (= recognizeByq_4 0))) (and (= startWithq_0 0) (or (= recognizeByq_0 1) (= recognizeByq_0 0)))) (and (= startWithq_6 0) (= recognizeByq_6 0))) (and (= startWithq_3 0) (= recognizeByq_3 0))) (and (= startWithq_2 0) (= recognizeByq_2 0))) (and (= recognizeByq_0 1) (= startWithq_5 1)))) 
 
(assert (and (and (and (and (and (and (and (and (and (and (and (and (and (and (and (and (and (and (and (<= 0 numOfDelta_18) (<= 0 numOfDelta_0)) (<= 0 numOfDelta_7)) (<= 0 numOfDelta_6)) (<= 0 numOfDelta_10)) (<= 0 numOfDelta_4)) (<= 0 numOfDelta_9)) (<= 0 numOfDelta_16)) (<= 0 numOfDelta_13)) (<= 0 numOfDelta_3)) (<= 0 numOfDelta_2)) (<= 0 numOfDelta_15)) (<= 0 numOfDelta_11)) (<= 0 numOfDelta_12)) (<= 0 numOfDelta_14)) (<= 0 numOfDelta_1)) (<= 0 numOfDelta_17)) (<= 0 numOfDelta_5)) (<= 0 numOfDelta_8)) (and (and (and (and (and (and (and (and (<= -1 zUsedInTransq_6) (<= 0 numberOfOccur_6)) (and (<= -1 zUsedInTransq_7) (<= 0 numberOfOccur_7))) (and (<= -1 zUsedInTransq_2) (<= 0 numberOfOccur_2))) (and (<= -1 zUsedInTransq_3) (<= 0 numberOfOccur_3))) (and (<= -1 zUsedInTransq_0) (<= 0 numberOfOccur_0))) (and (<= -1 zUsedInTransq_5) (<= 0 numberOfOccur_5))) (and (<= -1 zUsedInTransq_4) (<= 0 numberOfOccur_4))) (and (<= -1 zUsedInTransq_1) (<= 0 numberOfOccur_1))))) 
 
(check-sat)
 (get-model)